etc/upTests/_zznested_singletons/nestedSingleton2ma-m/0001.eprime
language ESSENCE' 1.0

find pain_tuple1_tuple1:
        matrix indexed by [int(1..2), int(3, 4), int(4), int(1, 2)] of int(6, 7, 8, 9)
such that
    forAll v__0 : int(1, 2) . pain_tuple1_tuple1[1, 3, 4, v__0] = [6, 7][v__0],
    forAll v__0 : int(1, 2) . pain_tuple1_tuple1[1, 4, 4, v__0] = [7, 8][v__0],
    forAll v__0 : int(1, 2) . pain_tuple1_tuple1[2, 3, 4, v__0] = [8, 9][v__0],
    forAll v__0 : int(1, 2) . pain_tuple1_tuple1[2, 4, 4, v__0] = [9, 6][v__0]
