etc/upTests/_zznested_singletons/nestedSingleton2ma-m/0001.eprime.solution
language ESSENCE' 1.0
$ minion Nodes: 1
$ minion TotalTime: 0.000375
$ Savile Row TotalTime: 0.156
letting pain_tuple1_tuple1 be [[[[6, 7;int(1,2)];int(4)], 
[[7, 8;int(1,2)];int(4)];int(3,4)], 
[[[8, 9;int(1,2)];int(4)], 
[[9, 6;int(1,2)];int(4)];int(3,4)];int(1..2)]
